
Log started (V22.2.0.0) Tue Jun  9 08:33:17 2026

New value for time limit in seconds: 120
New value for default parallel thread count: 4
New value for mixed integer optimality gap tolerance: 0.001
New value for level of mixed integer node display: 2

Problem 'results/InstanceB4_bigm_finsteps123.lp' read.
Read time = 0.01 sec. (0.47 ticks)
Version identifier: 22.2.0.0 | 2026-05-04 | 5dff98e58
CPXPARAM_Threads                                 4
CPXPARAM_TimeLimit                               120
CPXPARAM_MIP_Tolerances_MIPGap                   0.001
Tried aggregator 2 times.
MIP Presolve eliminated 35 rows and 35 columns.
MIP Presolve modified 36922 coefficients.
Aggregator did 319 substitutions.
Reduced MIP has 4836 rows, 2610 columns, and 14164 nonzeros.
Reduced MIP has 2291 binaries, 0 generals, 0 SOSs, and 0 indicators.
Presolve time = 0.01 sec. (19.85 ticks)
Found incumbent of value 60.000000 after 0.02 sec. (30.01 ticks)
Probing time = 0.00 sec. (4.22 ticks)
Tried aggregator 1 time.
Detecting symmetries...
MIP Presolve modified 14 coefficients.
Reduced MIP has 4836 rows, 2610 columns, and 14164 nonzeros.
Reduced MIP has 2291 binaries, 0 generals, 0 SOSs, and 0 indicators.
Presolve time = 0.00 sec. (7.86 ticks)
Probing time = 0.00 sec. (3.95 ticks)
Clique table members: 2237.
MIP emphasis: balance optimality and feasibility.
MIP search method: dynamic search.
Parallel mode: deterministic, using up to 4 threads.
Root relaxation solution time = 0.02 sec. (111.53 ticks)

        Nodes                                         Cuts/
   Node  Left     Objective  IInf  Best Integer    Best Bound    ItCnt     Gap

*     0+    0                           60.0000       15.0000            75.00%
      0     0       15.0000    15       60.0000       15.0000     2000   75.00%
*     0+    0                           16.0000       15.0000             6.25%
      0     0        cutoff             16.0000                   2000    0.00%
Elapsed time = 0.08 sec. (175.67 ticks, tree = 0.01 MB, solutions = 2)

Root node processing (before b&c):
  Real time             =    0.09 sec. (175.86 ticks)
Parallel b&c, 4 threads:
  Real time             =    0.00 sec. (0.00 ticks)
  Sync time (average)   =    0.00 sec.
  Wait time (average)   =    0.00 sec.
                          ------------
Total (root+branch&cut) =    0.09 sec. (175.86 ticks)

Solution pool: 2 solutions saved.

MIP - Integer optimal solution:  Objective =  1.6000000000e+01
Solution time =    0.09 sec.  Iterations = 2000  Nodes = 0
Deterministic time = 175.87 ticks  (2023.03 ticks/sec)


Incumbent solution written to file 'results/InstanceB4_bigm_finsteps123.sol'.
